40 135 5
90986 138 1975
21707 65 1988
31413 85 1970
94125 91 1965
16006 43 1969
97680 151 1973
42164 89 1955
36086 92 1970
9692 25 1990
5015 33 1960
29716 81 1968
34620 82 1975
57371 95 1979
9792 47 1977
4408 23 1963
43840 98 1977
21904 54 1971
7392 48 1956
20684 71 1982
55158 112 1967
18215 52 1964
92095 109 1977
49529 54 1957
7901 25 1971
80874 84 1998
4274 30 2003
6976 35 1974
3700 9 1978
37485 99 1964
44698 77 1997
7302 26 1983
4192 12 1976
10397 43 1961
89439 58 1951
28041 11 1948
14042 40 1970
17375 68 1970
1017 15 1956
1736 15 1987
49327 92 1972
